problems/csplib-prob065/opd-models/noch/O0/minion/model_1-small_bibd_10_30_09-solution000001.eprime-solution
language ESSENCE' 1.0

letting lambda be 2
letting opd_ExplicitR2_Occurrence be
        [[false, false, false, false, false, false, false, false, false, false, false, false, false, false, false,
          false, false, false, false, false, false, true, true, true, true, true, true, true, true, true;
              int(1..30)],
         [false, false, false, false, false, false, false, false, false, false, false, false, false, false, true, true,
          true, true, true, true, true, false, false, false, false, false, false, false, true, true;
              int(1..30)],
         [false, false, false, false, false, false, false, false, false, true, true, true, true, true, false, false,
          false, false, false, true, true, false, false, false, false, false, true, true, false, false;
              int(1..30)],
         [false, false, false, false, false, false, true, true, true, false, false, false, true, true, false, false,
          false, true, true, false, false, false, false, false, true, true, false, false, false, false;
              int(1..30)],
         [false, false, false, false, false, true, false, true, true, false, true, true, false, false, false, true,
          true, false, false, false, false, false, true, true, false, false, false, false, false, false;
              int(1..30)],
         [false, false, false, true, true, false, true, false, false, true, false, false, false, true, true, false,
          true, false, false, false, false, true, false, true, false, false, false, false, false, false;
              int(1..30)],
         [false, true, true, false, true, true, false, false, false, false, false, false, true, false, false, false,
          false, false, true, false, true, true, true, false, false, false, false, false, false, false;
              int(1..30)],
         [true, false, true, true, false, true, false, false, false, false, false, true, false, false, true, false,
          false, false, false, true, false, false, false, false, true, true, false, false, false, false;
              int(1..30)],
         [true, true, false, true, true, false, false, false, true, false, false, false, false, false, false, true,
          false, true, false, false, false, false, false, false, false, false, true, true, false, false;
              int(1..30)],
         [true, true, true, false, false, false, true, true, false, true, true, false, false, false, false, false,
          false, false, false, false, false, false, false, false, false, false, false, false, true, true;
              int(1..30)];
             int(1..10)]
