problems/csplib-prob065/opd-models/noch/O0/minion/model_1-small_bibd_10_30_09-solution000001.solution
language Essence 1.3

letting lambda be 2
letting opd be
        {{1, 2, 3, 7, 8, 10, 11, 29, 30}, {1, 2, 4, 5, 9, 16, 18, 27, 28}, {1, 3, 4, 6, 12, 15, 20, 25, 26},
         {2, 3, 5, 6, 13, 19, 21, 22, 23}, {4, 5, 7, 10, 14, 15, 17, 22, 24}, {6, 8, 9, 11, 12, 16, 17, 23, 24},
         {7, 8, 9, 13, 14, 18, 19, 25, 26}, {10, 11, 12, 13, 14, 20, 21, 27, 28}, {15, 16, 17, 18, 19, 20, 21, 29, 30},
         {22, 23, 24, 25, 26, 27, 28, 29, 30}}
$ Visualisation for opd
$  1  2  3  7  8 10 11 29 30
$  1  2  4  5  9 16 18 27 28
$  1  3  4  6 12 15 20 25 26
$  2  3  5  6 13 19 21 22 23
$  4  5  7 10 14 15 17 22 24
$  6  8  9 11 12 16 17 23 24
$  7  8  9 13 14 18 19 25 26
$ 10 11 12 13 14 20 21 27 28
$ 15 16 17 18 19 20 21 29 30
$ 22 23 24 25 26 27 28 29 30

